NAME: clu_20_10
TYPE: TSP
DIMENSION: 20
EDGE_WEIGHT_TYPE: EUC_2D
NODE_COORD_SECTION
1 11 71
2 78 9
3 85 96
4 7 79
5 71 6
6 23 89
7 82 105
8 53 13
9 75 3
10 60 38
11 65 1
12 82 94
13 25 84
14 71 14
15 32 43
16 102 81
17 49 22
18 14 85
19 87 88
20 60 11
EOF
